Test: fpga13_12_sat.cnf
Options: -no-inverting-opt -sym-usage-var-bump
WARNING: for repeatability, setting FPU to use double precision
============================[ Problem Statistics ]=============================
|                                                                             |
|  Number of symmetries:           32                                         |
|  Number of invertingSyms:         0                                         |
|  Number of variables:           234                                         |
|  Number of clauses:            1242                                         |
|  Parse time:                   0.00 s                                       |
|                                                                             |
============================[ Search Statistics ]==============================
| Conflicts |          ORIGINAL         |          LEARNT          | Progress |
|           |    Vars  Clauses Literals |    Limit  Clauses Lit/Cl |          |
===============================================================================
|       100 |     234     1242     3396 |      455      253     48 |  0.002 % |
|       250 |     234     1242     3396 |      500      519     40 |  0.002 % |
===============================================================================
restarts              : 4
conflicts             : 430            (26873 /sec)
symconflicts          : 49             (3062 /sec)
decisions             : 936            (0.00 % random) (58496 /sec)
propagations          : 9922           (620086 /sec)
sympropagations       : 381            (23811 /sec)
conflict literals     : 19694          (5.53 % deleted)
literals     : 19694          (5.53 % deleted)

HEURISTIC USAGES
random                : 0           
activity w/ lookahead : 0           
activity no lookahead : 0           
original sp           : 935         
sym count             : 0           

Memory used           : 6.00 MB
CPU time              : 0.016001 s

SATISFIABLE
